SCIP Status        : problem creation / modification
Total Time         :       0.02
  reading          :       0.02
Original Problem   :
  Problem name     : main4.zpl
  Variables        : 1830 (1830 binary, 0 integer, 0 implicit integer, 0 continuous)
  Constraints      : 0 initial, 1890 maximal
  Objective        : minimize, 1830 non-zeros (abs.min = 0.00102, abs.max = 5700)
